90 72 11 14 25 93 56 85 67 65 33 45 36 82 0 18 23 3 64 99 51 28 96 57 70 22 10 58 81 53 76 40 77 91 55 8 97 38 43 35 88 24 83 29 34 78 98 49 69 12 73 62 80 63 61 89 50 9 20 71 84 4 30 59 46 31 75 41 6 42 95 13 15 27 48 86 60 1 94 19 79 26 87 44 66 17 37 16 32 74 7 5 47 54 92 21 39 2 68 52